DATASET = "thpack2";
INSTANCE = "019";

WIDTH = 233;
HEIGHT = 220;
LENGTH = 587;

NO_OF_SHAPES = 5;
size = [|
  60,45,26 |
  71,43,39 |
  99,71,64 |
  61,41,40 |
  83,79,43 |
|];

verticality = [|
  0,1,1 |
  1,1,1 |
  1,1,1 |
  1,1,1 |
  1,1,1 |
|];

box_count = [
  27,
  25,
  29,
  30,
  32,
];
